* UNL main file generated by charmmgen
* author: Victor Bazterra 2004 CHPC
* 

Read rtf card name LIG_CHARMM.rtf

Read param card name LIG_CHARMM.prm

Read sequence card
* Reading the coordinates of residue
* 
    1
UNL
Generate UNL setup
Read coor card free
* Residues coordinate
* 
   55
    1    1 UNL  Cl    -5.76300   0.41500   2.18100
    2    1 UNL  F     -6.52800  -0.44400  -0.56500
    3    1 UNL  O     -1.65600   3.91700  -1.28100
    4    1 UNL  O1     3.52600   0.93900   0.87200
    5    1 UNL  O2     5.23500  -1.00500  -0.25400
    6    1 UNL  N      0.81200   3.18900   0.06900
    7    1 UNL  N1    -1.14000  -1.12500   0.60500
    8    1 UNL  N2     1.57100  -3.93100  -0.82000
    9    1 UNL  N3    -0.66800  -3.26700  -0.32600
   10    1 UNL  C      1.88800   3.44000   1.04100
   11    1 UNL  C1    -0.50700   3.15000   0.74200
   12    1 UNL  C2     0.76200   4.21300  -0.99700
   13    1 UNL  C3     3.30300   3.29400   0.45300
   14    1 UNL  C4    -1.63700   2.90100  -0.27100
   15    1 UNL  C5    -0.39800   3.94400  -1.96800
   16    1 UNL  C6     3.55700   1.92200  -0.17100
   17    1 UNL  C7     3.04900  -0.25300   0.40500
   18    1 UNL  C8     1.15400  -1.74600   0.08200
   19    1 UNL  C9     1.68500  -0.50300   0.50100
   20    1 UNL  C10    3.89700  -1.23900  -0.08300
   21    1 UNL  C11    2.01200  -2.73600  -0.41600
   22    1 UNL  C12    3.37300  -2.46200  -0.50200
   23    1 UNL  C13   -0.21500  -2.07400   0.09800
   24    1 UNL  C14   -2.51700  -1.02900   0.32400
   25    1 UNL  C15    0.25000  -4.14000  -0.75000
   26    1 UNL  C16    5.94100  -1.26500   0.95800
   27    1 UNL  C17   -3.37800  -0.45800   1.27300
   28    1 UNL  C18   -3.04100  -1.36700  -0.93300
   29    1 UNL  C19   -4.73300  -0.27100   0.98400
   30    1 UNL  C20   -4.39400  -1.17200  -1.22800
   31    1 UNL  C21   -5.23300  -0.62800  -0.26400
   32    1 UNL  H      1.78500   4.44000   1.48100
   33    1 UNL  H1     1.79600   2.72700   1.86900
   34    1 UNL  H2    -0.52400   2.34800   1.48900
   35    1 UNL  H3    -0.69100   4.10100   1.25900
   36    1 UNL  H4     0.63600   5.20900  -0.55200
   37    1 UNL  H5     1.69000   4.21300  -1.57600
   38    1 UNL  H6     3.49200   4.07700  -0.28900
   39    1 UNL  H7     4.01800   3.45200   1.26900
   40    1 UNL  H8    -1.53500   1.91900  -0.74700
   41    1 UNL  H9    -2.60500   2.92500   0.24000
   42    1 UNL  H10   -0.44500   4.74200  -2.71700
   43    1 UNL  H11   -0.25600   2.99600  -2.50200
   44    1 UNL  H12    2.83100   1.72000  -0.96800
   45    1 UNL  H13    4.55800   1.90900  -0.61700
   46    1 UNL  H14    1.03600   0.28400   0.87400
   47    1 UNL  H15    4.04100  -3.21900  -0.90700
   48    1 UNL  H16   -0.91200  -0.93000   1.57500
   49    1 UNL  H17   -0.10900  -5.11300  -1.06900
   50    1 UNL  H18   -2.99900  -0.16200   2.24700
   51    1 UNL  H19   -2.39200  -1.77300  -1.70600
   52    1 UNL  H20    6.99300  -1.01100   0.79200
   53    1 UNL  H21    5.57200  -0.64900   1.78500
   54    1 UNL  H22    5.88500  -2.32700   1.21900
   55    1 UNL  H23   -4.79000  -1.43400  -2.20400
Energy ihbfrq 0 inbfrq -1
Open write card unit 14 name tmp.out
Write energy card unit 14
* UNL energy before the optimization
* 
Minimise Abnr Nstep 5000 Tolgrd 0.00001
Write energy card unit 14
* UNL energy after optimization
* 
Write coor card unit 14
* UNL energy after optimization
* 
